c Random 6-CNF over 12 variables and 30 clauses
c Generated with `cnfgen`
c (C) 2012-2019 Massimo Lauria <massimo.lauria@uniroma1.it>
c https://massimolauria.net/cnfgen
c
c COMMAND LINE: cnfgen -v -o rand6_1.cnf randkcnf 6 12 30
c
p cnf 12 30
-3 4 6 -10 11 -12 0
-2 5 -7 -9 10 -11 0
2 -4 5 -6 9 10 0
1 2 5 -7 -8 -12 0
1 -3 -5 7 10 -12 0
-2 -3 -5 8 10 11 0
1 3 6 -7 8 10 0
-2 -4 6 -7 9 -10 0
-2 -3 4 -5 7 11 0
1 2 -3 5 10 -11 0
-2 -4 -6 -9 -10 11 0
1 4 6 -8 -9 -10 0
3 4 7 8 9 -10 0
-1 3 -4 10 -11 -12 0
1 -2 6 -7 -10 11 0
-1 3 6 8 9 -11 0
-2 -4 5 6 9 12 0
2 5 -7 -8 -10 -12 0
1 -7 -8 9 -11 12 0
2 -3 7 -9 11 -12 0
-1 -3 -6 -10 -11 -12 0
1 4 5 -7 8 -11 0
1 4 5 6 -7 -10 0
2 -3 5 8 -9 10 0
1 2 3 -5 -6 -7 0
-1 4 5 6 -7 10 0
-3 -5 -6 7 -9 12 0
1 -4 -5 7 -10 12 0
1 -3 -6 7 -8 12 0
6 7 8 10 -11 12 0
